130 6626
1 34 17 54 35 4 42 44 55 122 40 47 22 33 21 18 108 8 126 121 78 85 66 125 90 59 30 114 3 83 117 112 115 28 62 105 128 16 45 5 11 76 109 61 129 124 64 69 86 88 7 113 32 36 84 119 111 123 101 82 57 9 56 65 52 75 74 73 99 91 72 92 79 95 29 15 24 116 100 31 27 19 43 104 107 127 97 26 70 63 68 48 25 98 110 89 94 77 103 81 87 12 38 106 58 49 53 120 51 60 6 102 14 10 96 67 13 23 37 93 20 46 80 118 2 50 130 71 39 41 
